#######################################
### Exact MIP solver for the HHCRSP ###
#######################################
-- Instance file: new-instances/HHCRSP_300_60_58_1.0_C_R.txt
-- Max threads: 4
-- Time limit: 999999 seconds
-- Use initial solution: No
Trivial flow violations prevented generating 1182495 variables.
Version identifier: 20.1.0.0 | 2020-11-10 | 9bedb6d68
CPXPARAM_Threads                                 4
CPXPARAM_TimeLimit                               999999
Parallel mode: deterministic, using up to 4 threads for concurrent optimization:
 * Starting dual Simplex on 1 thread...
 * Starting Barrier on 3 threads...
Tried aggregator 1 time.
LP Presolve eliminated 48420 rows and 11642 columns.
Reduced LP has 1350018 rows, 1280777 columns, and 31863394 nonzeros.
Presolve time = 35.64 sec. (6947.69 ticks)
Symmetry aggregator did 2214558 additional substitutions.
Initializing dual steep norms . . .

Iteration log . . .
Iteration:     1   Dual objective     =             1.666667
Iteration:  1370   Dual objective     =           423.166667

Dual crossover.
  Dual:  Fixing 2188 variables.
     2187 DMoves:  Infeasibility  1.99384954e-12  Objective  4.26000000e+02
        0 DMoves:  Infeasibility  8.63642499e-13  Objective  4.26000000e+02
  Dual:  Pushed 44, exchanged 2144.
  Primal:  Fixing 1654 variables.
     1653 PMoves:  Infeasibility  2.89580914e-15  Objective  4.26000000e+02
        0 PMoves:  Infeasibility  4.29281719e-15  Objective  4.26000000e+02
  Primal:  Pushed 1508, exchanged 146.

Dual simplex solved model.


Solution status from MIP model:
-- Processing time: 58.804 sec.
-- Memory used: 1224.16 MB
-- Best bound: inf
-- Obj value: 426
-- Gap: inf%
-- Total distance: 1278
-- Total tardiness: 0
-- Largest tardiness: 0
